
Gurobi 11.0.3 (linux64) logging started Tue 19 Nov 2024 01:39:15 AM CST

Set parameter LogFile to value "/home/dlcole3/graph_abstraction/hierarchical_graphs/git_storage/CS1/HP_low_reserves/gurobi_logs/serial/logfile_ST31_4.log"

Gurobi 11.0.3 (linux64) logging started Tue 19 Nov 2024 01:46:39 AM CST

Set parameter LogFile to value "/home/dlcole3/graph_abstraction/hierarchical_graphs/git_storage/CS1/HP_low_reserves/gurobi_logs/serial/logfile_ST31_4.log"
Gurobi Optimizer version 11.0.3 build v11.0.3rc0 (linux64 - "Ubuntu 18.04.3 LTS")

CPU model: Intel(R) Xeon(R) CPU E5-2698 v4 @ 2.20GHz, instruction set [SSE2|AVX|AVX2]
Thread count: 40 physical cores, 80 logical processors, using up to 20 threads

Optimize a model with 29168 rows, 50688 columns and 136175 nonzeros
Model fingerprint: 0xbbd1c242
Variable types: 46944 continuous, 3744 integer (3744 binary)
Coefficient statistics:
  Matrix range     [6e-01, 2e+04]
  Objective range  [2e+00, 2e+04]
  Bounds range     [5e-02, 2e+05]
  RHS range        [9e-04, 7e+03]
Presolve removed 14280 rows and 38616 columns
Presolve time: 0.42s
Presolved: 14888 rows, 12072 columns, 63587 nonzeros
Variable types: 9081 continuous, 2991 integer (2991 binary)
Found heuristic solution: objective 182985.82570
Found heuristic solution: objective 177194.59613
Found heuristic solution: objective 154593.22500

Root relaxation: objective 5.560708e+04, 8582 iterations, 0.50 seconds (0.30 work units)

    Nodes    |    Current Node    |     Objective Bounds      |     Work
 Expl Unexpl |  Obj  Depth IntInf | Incumbent    BestBd   Gap | It/Node Time

     0     0 55607.0803    0   19 154593.225 55607.0803  64.0%     -    2s
H    0     0                    154593.22496 55607.0803  64.0%     -    2s
H    0     0                    56617.329703 55607.0803  1.78%     -    2s
     0     0 55607.0803    0   19 56617.3297 55607.0803  1.78%     -    2s
     0     0 55607.0803    0   12 56617.3297 55607.0803  1.78%     -    2s
     0     0 55607.0803    0   12 56617.3297 55607.0803  1.78%     -    3s
     0     2 55607.0803    0   12 56617.3297 55607.0803  1.78%     -    3s
H   27    29                    56319.799212 55607.1254  1.27%  27.2    3s
H   31    43                    56319.799200 55607.1254  1.27%  25.9    3s
H   35    43                    56319.799176 55607.1254  1.27%  27.0    3s
H   37    43                    56319.799160 55607.1254  1.27%  27.0    3s
H   41    43                    56282.087560 55607.1254  1.20%  26.8    3s
H   44    43                    56181.688425 55607.1254  1.02%  25.2    3s
H   58    48                    56181.688418 55607.1254  1.02%  28.6    3s
*   78    53               7    56171.298367 55607.1803  1.00%  25.8    4s
H  209    84                    56040.130223 55607.1803  0.77%  14.7    4s
H  291    55                    56040.130200 55607.1803  0.77%  11.6    4s
H  299    55                    56040.130165 55607.1803  0.77%  11.7    4s
H  376    87                    56035.018326 55607.1803  0.76%  10.7    4s
   438    96 infeasible   22      56035.0183 55797.5585  0.42%   9.6    5s
H 1422   322                    56035.018091 55798.3548  0.42%   5.6    7s
H 1440   322                    56035.017981 55798.3548  0.42%   5.6    7s
H 1441   322                    56035.017640 55798.3548  0.42%   5.6    7s
H 1444   327                    56035.017576 55798.3548  0.42%   5.6    7s

Explored 1700 nodes (24767 simplex iterations) in 7.90 seconds (4.95 work units)
Thread count was 20 (of 80 available processors)

Solution count 10: 56035 56035 56035 ... 154593

Optimal solution found (tolerance 3.00e-03)
Best objective 5.603501758024e+04, best bound 5.595937103727e+04, gap 0.1350%

User-callback calls 6332, time in user-callback 0.00 sec
